<?xml version = "1.0" standalone="yes"?>
<!-- This file has been generated by DOcplex version 2.23.222  -->
<CPLEXSolution version="1.0">
 <header
   problemName="CVRP"
   objectiveValue="9468.62"
  />
 <variables>
  <variable name="x_0_2" index="1" value="1.00000"/>
  <variable name="x_0_5" index="4" value="1.00000"/>
  <variable name="x_0_7" index="6" value="1.00000"/>
  <variable name="x_0_8" index="7" value="1.00000"/>
  <variable name="x_0_9" index="8" value="1.00000"/>
  <variable name="x_0_14" index="13" value="1.00000"/>
  <variable name="x_0_15" index="14" value="1.00000"/>
  <variable name="x_1_0" index="15" value="1.00000"/>
  <variable name="x_2_1" index="31" value="1.00000"/>
  <variable name="x_3_0" index="45" value="1.00000"/>
  <variable name="x_4_0" index="60" value="1.00000"/>
  <variable name="x_5_13" index="87" value="1.00000"/>
  <variable name="x_6_12" index="101" value="1.00000"/>
  <variable name="x_7_0" index="105" value="1.00000"/>
  <variable name="x_8_3" index="123" value="1.00000"/>
  <variable name="x_9_11" index="145" value="1.00000"/>
  <variable name="x_10_6" index="156" value="1.00000"/>
  <variable name="x_11_0" index="165" value="1.00000"/>
  <variable name="x_12_0" index="180" value="1.00000"/>
  <variable name="x_13_0" index="195" value="1.00000"/>
  <variable name="x_14_4" index="214" value="1.00000"/>
  <variable name="x_15_10" index="235" value="1.00000"/>
  <variable name="u_1" index="240" value="26.00000"/>
  <variable name="u_2" index="241" value="11.00000"/>
  <variable name="u_3" index="242" value="26.00000"/>
  <variable name="u_4" index="243" value="26.00000"/>
  <variable name="u_5" index="244" value="10.00000"/>
  <variable name="u_6" index="245" value="17.00000"/>
  <variable name="u_7" index="246" value="14.00000"/>
  <variable name="u_8" index="247" value="11.00000"/>
  <variable name="u_9" index="248" value="1.00000"/>
  <variable name="u_10" index="249" value="12.00000"/>
  <variable name="u_11" index="250" value="26.00000"/>
  <variable name="u_12" index="251" value="23.00000"/>
  <variable name="u_13" index="252" value="26.00000"/>
  <variable name="u_14" index="253" value="6.00000"/>
  <variable name="u_15" index="254" value="10.00000"/>
 </variables>
</CPLEXSolution>
